nNurses = 81;
nHours = 30;
minHours = 6;
maxHours = 13;
maxConsec = 10;
maxPresence = 17;
demand = [11, 7, 10, 7, 11, 15, 13, 9, 11, 11, 8, 7, 11, 15, 10, 13, 10, 6, 8, 8, 6, 6, 11, 12, 17, 15, 16, 16, 14, 13];
